c read Graph
c width = 37
c time = 236 ms
c width = 3
c time = 294 ms
c width = 3
c time = 4396 ms
s td 54 4 57
b 1 1 2 20
b 2 2 3 20 21
b 3 17 18 37 38
b 4 3 20 21 40
b 5 3 21 22 40
b 6 17 37 38 56
b 7 3 22 40 41
b 8 3 22 41 42
b 9 17 37 55 56
b 10 3 4 22 42
b 11 4 22 23 42
b 12 4 23 24 42
b 13 17 36 37 55
b 14 4 24 42 43
b 15 4 24 43 44
b 16 17 36 54 55
b 17 4 5 24 44
b 18 5 24 25 44
b 19 5 6 25 44
b 20 17 35 36 54
b 21 16 17 35 54
b 22 6 7 25 44
b 23 7 25 26 44
b 24 7 26 44 45
b 25 7 8 26 45
b 26 8 26 27 45
b 27 8 27 45 46
b 28 8 9 27 46
b 29 9 27 28 46
b 30 9 28 46 47
b 31 9 10 28 47
b 32 10 28 29 47
b 33 10 29 47 48
b 34 10 11 29 48
b 35 11 29 30 48
b 36 11 30 48 49
b 37 11 12 30 49
b 38 12 30 31 49
b 39 12 31 49 50
b 40 12 13 31 50
b 41 13 31 32 50
b 42 13 32 50 51
b 43 13 14 32 51
b 44 14 32 33 51
b 45 14 33 51 52
b 46 14 15 33 52
b 47 15 33 34 52
b 48 15 34 52 53
b 49 15 16 34 53
b 50 16 34 35 53
b 51 16 35 53 54
b 52 38 56 57
b 53 20 39 40
b 54 18 19 38
1 2
2 4
3 54
3 6
4 53
4 5
5 7
6 52
6 9
7 8
8 10
9 13
10 11
11 12
12 14
13 16
14 15
15 17
16 20
17 18
18 19
19 22
20 21
21 51
22 23
23 24
24 25
25 26
26 27
27 28
28 29
29 30
30 31
31 32
32 33
33 34
34 35
35 36
36 37
37 38
38 39
39 40
40 41
41 42
42 43
43 44
44 45
45 46
46 47
47 48
48 49
49 50
50 51
